\ Model linear_programming
\ LP format - for model browsing. Use MPS format to capture full model detail.
Maximize
  5 x1 + 3 x2
Subject To
 c0: x1 + x2 <= 16
 c1: x1 + 4 x2 <= 20
 c2: x2 <= 8
Bounds
End
